language ESSENCE' 1.0
letting shiftRequirements = [[6, 3, 4, 7], [7, 1, 5, 7], [7, 1, 5, 7], [5, 1, 6, 8], [7, 2, 4, 7], [8, 3, 3, 6], [8, 3, 3, 6]]
letting numberOfWeeks = 20
letting s_min = 3
letting s_max = 4
